Maximize
  - 1.2658190219278 edge_0_1_0_0 - 3.1250140312118 edge_0_4_0_0
   - 3.291375084102 edge_0_5_0_0 - 2.9834539990272 edge_0_6_0_0
   - 0.8094285400724101 edge_0_7_0_0 - 1.7896440568794 edge_0_8_0_0
   - 3.2346118561356 edge_0_10_0_0 - 3.089739116607 edge_0_12_0_0
   - 0.9917975616204001 edge_0_13_0_0 - 2.7003373194083 edge_0_15_0_0
   - 2.5720894488411 edge_0_16_0_0 - 3.7259720897512 edge_0_18_0_0
   + 0.3574148164355526 edge_1_1_0_0 + 0.0705088908622179 edge_1_2_0_0
   + 0.18402881468678 edge_1_4_0_0 + 0.1656891779292182 edge_1_5_0_0
   + 0.3743475922171997 edge_1_6_0_0 + 0.2395789682005961 edge_1_7_0_0
   - 0.1707850840245722 edge_1_8_0_0 - 0.204583896504916 edge_1_9_0_0
   - 0.4121740882426553 edge_1_10_0_0 - 0.0616174270779844 edge_1_13_0_0
   - 0.418904359416253 edge_1_15_0_0 - 0.3231625020677555 edge_1_16_0_0
   - 0.2050286672927433 edge_1_17_0_0 - 0.0501121307758144 edge_1_18_0_0
   + 0.2031113990779436 edge_2_1_0_0 + 1.5428515756273 edge_2_4_0_0
   + 1.129245976140249 edge_2_5_0_0 + 0.419392963712942 edge_2_6_0_0
   + 0.5953563651783531 edge_2_7_0_0 - 0.0049906532509102 edge_2_8_0_0
   + 0.0418720367074959 edge_2_9_0_0 - 0.2425987790695861 edge_2_10_0_0
   - 0.756563944648553 edge_2_16_0_0 - 0.1354424631559 edge_4_1_0_0
   + 0.4885671751082 edge_4_2_0_0 + 0.9214706216845009 edge_4_5_0_0
   + 0.5884708579602245 edge_4_6_0_0 + 0.024662835941976 edge_4_7_0_0
   + 0.1179818724234333 edge_4_8_0_0 - 0.3069654567704977 edge_4_10_0_0
   + 0.1451767010011714 edge_4_12_0_0 - 0.0334543128487804 edge_4_13_0_0
   - 0.3030781360892343 edge_4_18_0_0 + 0.0846039586869145 edge_5_1_0_0
   + 2.494133161343841 edge_5_2_0_0 + 3.528823459627818 edge_5_4_0_0
   + 3.055517077092812 edge_5_6_0_0 + 0.3829356053340534 edge_5_7_0_0
   + 1.079705684965748 edge_5_8_0_0 + 1.98675170730743 edge_5_10_0_0
   + 0.9199024772505061 edge_5_12_0_0 + 0.8329632565144984 edge_5_13_0_0
   + 0.349724916886557 edge_5_15_0_0 + 0.4059261718458224 edge_5_16_0_0
   + 0.7216005692843347 edge_5_18_0_0 + 0.5980041626326619 edge_6_1_0_0
   + 0.7555864887366984 edge_6_2_0_0 + 1.2123596753472 edge_6_4_0_0
   + 1.505603214692586 edge_6_5_0_0 + 0.9440611562915756 edge_6_7_0_0
   + 0.3061867978233005 edge_6_8_0_0 + 0.1041824617603434 edge_6_9_0_0
   + 0.3093373846244788 edge_6_10_0_0 + 0.4946600645851424 edge_6_12_0_0
   + 0.1136786957660073 edge_6_13_0_0 - 0.3908002757812273 edge_6_15_0_0
   - 0.4517766086949248 edge_6_16_0_0 - 0.3779262724352579 edge_6_17_0_0
   + 0.4224461862212012 edge_6_18_0_0 + 0.9998765331999023 edge_7_1_0_0
   + 0.8533740364255676 edge_7_2_0_0 + 0.62178748311969 edge_7_4_0_0
   + 2.020703780482185 edge_7_5_0_0 + 0.87397766107737 edge_7_6_0_0
   + 2.811070190222515 edge_7_8_0_0 + 0.5966293437658656 edge_7_9_0_0
   + 2.381285455011034 edge_7_10_0_0 + 1.382111822931158 edge_7_12_0_0
   + 0.7798514559287817 edge_7_13_0_0 + 0.6991821307726038 edge_7_15_0_0
   - 0.1067957040394986 edge_7_16_0_0 + 0.3658407651197556 edge_7_17_0_0
   + 2.43120158591039 edge_7_18_0_0 + 0.2218624228084231 edge_8_4_0_0
   + 0.0720717696924888 edge_8_5_0_0 + 0.5027504209161271 edge_8_6_0_0
   - 0.1982890892873413 edge_8_7_0_0 + 0.4458406395254554 edge_8_9_0_0
   + 1.220799752913168 edge_8_10_0_0 + 0.4736334123450496 edge_8_12_0_0
   + 0.4285948176241167 edge_8_13_0_0 - 0.2878539094814497 edge_8_15_0_0
   - 0.3712977458465869 edge_8_16_0_0 - 0.3463929834974869 edge_8_17_0_0
   + 0.240444965262515 edge_8_18_0_0 + 0.7745421680536405 edge_9_8_0_0
   + 0.1236503584750992 edge_9_12_0_0 - 0.0954702817320238 edge_9_13_0_0
   - 0.5382569324745535 edge_9_15_0_0 - 0.0565168841637004 edge_10_1_0_0
   + 0.1634749844474811 edge_10_2_0_0 + 1.578304940719605 edge_10_4_0_0
   + 0.368763770159205 edge_10_5_0_0 + 1.24819295606765 edge_10_6_0_0
   + 0.4752231798119514 edge_10_7_0_0 + 2.307322132611422 edge_10_8_0_0
   + 3.285371882394269 edge_10_9_0_0 + 0.6869099331798998 edge_10_12_0_0
   + 0.5975279311399826 edge_10_13_0_0 + 0.4717021520146433 edge_10_15_0_0
   + 0.4696168355844031 edge_10_16_0_0 + 0.0261051339846583 edge_10_17_0_0
   + 0.6182606790600045 edge_10_18_0_0 - 0.461774552236796 edge_12_1_0_0
   - 0.7303295796120383 edge_12_2_0_0 - 1.251273532745488 edge_12_4_0_0
   - 1.367887941765612 edge_12_5_0_0 - 0.9647173523654831 edge_12_6_0_0
   - 0.4228648934081453 edge_12_8_0_0 - 0.1420281469480996 edge_12_9_0_0
   - 0.2904313743418752 edge_12_10_0_0 + 0.0138564507776982 edge_12_13_0_0
   - 0.4370765737977739 edge_12_15_0_0 - 0.2773766963664964 edge_12_18_0_0
   - 0.0418101674426247 edge_13_1_0_0 - 0.0912446061095031 edge_13_2_0_0
   - 0.3235827977496 edge_13_4_0_0 + 0.0321677871282841 edge_13_5_0_0
   - 0.0406147833344345 edge_13_6_0_0 - 0.1229642067201285 edge_13_7_0_0
   + 0.2526570957506003 edge_13_8_0_0 + 0.0335600279917595 edge_13_9_0_0
   + 0.5516625224237911 edge_13_10_0_0 + 0.100742884764634 edge_13_12_0_0
   + 0.8088360764078939 edge_13_13_0_0 + 2.802086522525829 edge_13_15_0_0
   + 2.097955848548835 edge_13_16_0_0 + 0.5258770708028493 edge_13_17_0_0
   + 1.141252587076507 edge_13_18_0_0 - 1.836038506930314 edge_15_2_0_0
   - 1.162780361072268 edge_15_4_0_0 - 1.236961025731714 edge_15_5_0_0
   - 1.214405267981152 edge_15_6_0_0 - 0.4564343387982606 edge_15_8_0_0
   - 0.1273256109188145 edge_15_9_0_0 - 0.3808129473033267 edge_15_10_0_0
   - 0.2503155459335172 edge_15_12_0_0 + 0.4635757847874854 edge_15_13_0_0
   + 3.611656433946023 edge_15_16_0_0 + 0.9906327044541283 edge_15_17_0_0
   + 1.280065854046018 edge_15_18_0_0 - 1.014019961118475 edge_16_4_0_0
   - 1.035411365451589 edge_16_5_0_0 - 0.3710673931950092 edge_16_6_0_0
   - 0.3176967159355378 edge_16_8_0_0 - 0.7332230262825506 edge_16_10_0_0
   - 0.0747805967946376 edge_16_12_0_0 + 0.1715569462408472 edge_16_13_0_0
   + 1.281510352449972 edge_16_15_0_0 + 0.3519825374748092 edge_16_17_0_0
   + 0.2088615920464772 edge_16_18_0_0 - 0.6534219376116378 edge_17_9_0_0
   + 0.1378758917719293 edge_17_13_0_0 + 0.2209637605280637 edge_17_15_0_0
   + 0.7888563726540483 edge_17_16_0_0 + 0.6567698626519186 edge_17_18_0_0
   - 2.432382028861475 edge_18_5_0_0 - 2.282196262326751 edge_18_10_0_0
   - 1.355914040029447 edge_18_12_0_0 - 0.5228098280733255 edge_18_16_0_0
   - 0.6511656760079909 edge_18_17_0_0
Subject To
 one_parent_1: edge_0_1_0_0 + edge_1_1_0_0 + edge_2_1_0_0 + edge_4_1_0_0
   + edge_5_1_0_0 + edge_6_1_0_0 + edge_7_1_0_0 + edge_10_1_0_0
   + edge_12_1_0_0 + edge_13_1_0_0 = 1
 consume_one_flow_unit_1: flow_0_1_0_0 - flow_1_2_0_0 - flow_1_4_0_0
   - flow_1_5_0_0 - flow_1_6_0_0 - flow_1_7_0_0 - flow_1_8_0_0
   - flow_1_9_0_0 - flow_1_10_0_0 - flow_1_13_0_0 - flow_1_15_0_0
   - flow_1_16_0_0 - flow_1_17_0_0 - flow_1_18_0_0 + flow_2_1_0_0
   + flow_4_1_0_0 + flow_5_1_0_0 + flow_6_1_0_0 + flow_7_1_0_0
   + flow_10_1_0_0 + flow_12_1_0_0 + flow_13_1_0_0 = 1
 one_parent_2: edge_1_2_0_0 + edge_4_2_0_0 + edge_5_2_0_0 + edge_6_2_0_0
   + edge_7_2_0_0 + edge_10_2_0_0 + edge_12_2_0_0 + edge_13_2_0_0
   + edge_15_2_0_0 = 1
 consume_one_flow_unit_2: flow_1_2_0_0 - flow_2_1_0_0 - flow_2_4_0_0
   - flow_2_5_0_0 - flow_2_6_0_0 - flow_2_7_0_0 - flow_2_8_0_0
   - flow_2_9_0_0 - flow_2_10_0_0 - flow_2_16_0_0 + flow_4_2_0_0
   + flow_5_2_0_0 + flow_6_2_0_0 + flow_7_2_0_0 + flow_10_2_0_0
   + flow_12_2_0_0 + flow_13_2_0_0 + flow_15_2_0_0 = 1
 one_parent_3: = 1
 consume_one_flow_unit_3: = 1
 one_parent_4: edge_0_4_0_0 + edge_1_4_0_0 + edge_2_4_0_0 + edge_5_4_0_0
   + edge_6_4_0_0 + edge_7_4_0_0 + edge_8_4_0_0 + edge_10_4_0_0
   + edge_12_4_0_0 + edge_13_4_0_0 + edge_15_4_0_0 + edge_16_4_0_0 = 1
 consume_one_flow_unit_4: flow_0_4_0_0 + flow_1_4_0_0 + flow_2_4_0_0
   - flow_4_1_0_0 - flow_4_2_0_0 - flow_4_5_0_0 - flow_4_6_0_0
   - flow_4_7_0_0 - flow_4_8_0_0 - flow_4_10_0_0 - flow_4_12_0_0
   - flow_4_13_0_0 - flow_4_18_0_0 + flow_5_4_0_0 + flow_6_4_0_0
   + flow_7_4_0_0 + flow_8_4_0_0 + flow_10_4_0_0 + flow_12_4_0_0
   + flow_13_4_0_0 + flow_15_4_0_0 + flow_16_4_0_0 = 1
 one_parent_5: edge_0_5_0_0 + edge_1_5_0_0 + edge_2_5_0_0 + edge_4_5_0_0
   + edge_6_5_0_0 + edge_7_5_0_0 + edge_8_5_0_0 + edge_10_5_0_0
   + edge_12_5_0_0 + edge_13_5_0_0 + edge_15_5_0_0 + edge_16_5_0_0
   + edge_18_5_0_0 = 1
 consume_one_flow_unit_5: flow_0_5_0_0 + flow_1_5_0_0 + flow_2_5_0_0
   + flow_4_5_0_0 - flow_5_1_0_0 - flow_5_2_0_0 - flow_5_4_0_0
   - flow_5_6_0_0 - flow_5_7_0_0 - flow_5_8_0_0 - flow_5_10_0_0
   - flow_5_12_0_0 - flow_5_13_0_0 - flow_5_15_0_0 - flow_5_16_0_0
   - flow_5_18_0_0 + flow_6_5_0_0 + flow_7_5_0_0 + flow_8_5_0_0
   + flow_10_5_0_0 + flow_12_5_0_0 + flow_13_5_0_0 + flow_15_5_0_0
   + flow_16_5_0_0 + flow_18_5_0_0 = 1
 one_parent_6: edge_0_6_0_0 + edge_1_6_0_0 + edge_2_6_0_0 + edge_4_6_0_0
   + edge_5_6_0_0 + edge_7_6_0_0 + edge_8_6_0_0 + edge_10_6_0_0
   + edge_12_6_0_0 + edge_13_6_0_0 + edge_15_6_0_0 + edge_16_6_0_0 = 1
 consume_one_flow_unit_6: flow_0_6_0_0 + flow_1_6_0_0 + flow_2_6_0_0
   + flow_4_6_0_0 + flow_5_6_0_0 - flow_6_1_0_0 - flow_6_2_0_0
   - flow_6_4_0_0 - flow_6_5_0_0 - flow_6_7_0_0 - flow_6_8_0_0
   - flow_6_9_0_0 - flow_6_10_0_0 - flow_6_12_0_0 - flow_6_13_0_0
   - flow_6_15_0_0 - flow_6_16_0_0 - flow_6_17_0_0 - flow_6_18_0_0
   + flow_7_6_0_0 + flow_8_6_0_0 + flow_10_6_0_0 + flow_12_6_0_0
   + flow_13_6_0_0 + flow_15_6_0_0 + flow_16_6_0_0 = 1
 one_parent_7: edge_0_7_0_0 + edge_1_7_0_0 + edge_2_7_0_0 + edge_4_7_0_0
   + edge_5_7_0_0 + edge_6_7_0_0 + edge_8_7_0_0 + edge_10_7_0_0
   + edge_13_7_0_0 = 1
 consume_one_flow_unit_7: flow_0_7_0_0 + flow_1_7_0_0 + flow_2_7_0_0
   + flow_4_7_0_0 + flow_5_7_0_0 + flow_6_7_0_0 - flow_7_1_0_0
   - flow_7_2_0_0 - flow_7_4_0_0 - flow_7_5_0_0 - flow_7_6_0_0
   - flow_7_8_0_0 - flow_7_9_0_0 - flow_7_10_0_0 - flow_7_12_0_0
   - flow_7_13_0_0 - flow_7_15_0_0 - flow_7_16_0_0 - flow_7_17_0_0
   - flow_7_18_0_0 + flow_8_7_0_0 + flow_10_7_0_0 + flow_13_7_0_0 = 1
 one_parent_8: edge_0_8_0_0 + edge_1_8_0_0 + edge_2_8_0_0 + edge_4_8_0_0
   + edge_5_8_0_0 + edge_6_8_0_0 + edge_7_8_0_0 + edge_9_8_0_0
   + edge_10_8_0_0 + edge_12_8_0_0 + edge_13_8_0_0 + edge_15_8_0_0
   + edge_16_8_0_0 = 1
 consume_one_flow_unit_8: flow_0_8_0_0 + flow_1_8_0_0 + flow_2_8_0_0
   + flow_4_8_0_0 + flow_5_8_0_0 + flow_6_8_0_0 + flow_7_8_0_0
   - flow_8_4_0_0 - flow_8_5_0_0 - flow_8_6_0_0 - flow_8_7_0_0
   - flow_8_9_0_0 - flow_8_10_0_0 - flow_8_12_0_0 - flow_8_13_0_0
   - flow_8_15_0_0 - flow_8_16_0_0 - flow_8_17_0_0 - flow_8_18_0_0
   + flow_9_8_0_0 + flow_10_8_0_0 + flow_12_8_0_0 + flow_13_8_0_0
   + flow_15_8_0_0 + flow_16_8_0_0 = 1
 one_parent_9: edge_1_9_0_0 + edge_2_9_0_0 + edge_6_9_0_0 + edge_7_9_0_0
   + edge_8_9_0_0 + edge_10_9_0_0 + edge_12_9_0_0 + edge_13_9_0_0
   + edge_15_9_0_0 + edge_17_9_0_0 = 1
 consume_one_flow_unit_9: flow_1_9_0_0 + flow_2_9_0_0 + flow_6_9_0_0
   + flow_7_9_0_0 + flow_8_9_0_0 - flow_9_8_0_0 - flow_9_12_0_0
   - flow_9_13_0_0 - flow_9_15_0_0 + flow_10_9_0_0 + flow_12_9_0_0
   + flow_13_9_0_0 + flow_15_9_0_0 + flow_17_9_0_0 = 1
 one_parent_10: edge_0_10_0_0 + edge_1_10_0_0 + edge_2_10_0_0
   + edge_4_10_0_0 + edge_5_10_0_0 + edge_6_10_0_0 + edge_7_10_0_0
   + edge_8_10_0_0 + edge_12_10_0_0 + edge_13_10_0_0 + edge_15_10_0_0
   + edge_16_10_0_0 + edge_18_10_0_0 = 1
 consume_one_flow_unit_10: flow_0_10_0_0 + flow_1_10_0_0 + flow_2_10_0_0
   + flow_4_10_0_0 + flow_5_10_0_0 + flow_6_10_0_0 + flow_7_10_0_0
   + flow_8_10_0_0 - flow_10_1_0_0 - flow_10_2_0_0 - flow_10_4_0_0
   - flow_10_5_0_0 - flow_10_6_0_0 - flow_10_7_0_0 - flow_10_8_0_0
   - flow_10_9_0_0 - flow_10_12_0_0 - flow_10_13_0_0 - flow_10_15_0_0
   - flow_10_16_0_0 - flow_10_17_0_0 - flow_10_18_0_0 + flow_12_10_0_0
   + flow_13_10_0_0 + flow_15_10_0_0 + flow_16_10_0_0 + flow_18_10_0_0 = 1
 one_parent_11: = 1
 consume_one_flow_unit_11: = 1
 one_parent_12: edge_0_12_0_0 + edge_4_12_0_0 + edge_5_12_0_0
   + edge_6_12_0_0 + edge_7_12_0_0 + edge_8_12_0_0 + edge_9_12_0_0
   + edge_10_12_0_0 + edge_13_12_0_0 + edge_15_12_0_0 + edge_16_12_0_0
   + edge_18_12_0_0 = 1
 consume_one_flow_unit_12: flow_0_12_0_0 + flow_4_12_0_0 + flow_5_12_0_0
   + flow_6_12_0_0 + flow_7_12_0_0 + flow_8_12_0_0 + flow_9_12_0_0
   + flow_10_12_0_0 - flow_12_1_0_0 - flow_12_2_0_0 - flow_12_4_0_0
   - flow_12_5_0_0 - flow_12_6_0_0 - flow_12_8_0_0 - flow_12_9_0_0
   - flow_12_10_0_0 - flow_12_13_0_0 - flow_12_15_0_0 - flow_12_18_0_0
   + flow_13_12_0_0 + flow_15_12_0_0 + flow_16_12_0_0 + flow_18_12_0_0 = 1
 one_parent_13: edge_0_13_0_0 + edge_1_13_0_0 + edge_4_13_0_0
   + edge_5_13_0_0 + edge_6_13_0_0 + edge_7_13_0_0 + edge_8_13_0_0
   + edge_9_13_0_0 + edge_10_13_0_0 + edge_12_13_0_0 + edge_13_13_0_0
   + edge_15_13_0_0 + edge_16_13_0_0 + edge_17_13_0_0 = 1
 consume_one_flow_unit_13: flow_0_13_0_0 + flow_1_13_0_0 + flow_4_13_0_0
   + flow_5_13_0_0 + flow_6_13_0_0 + flow_7_13_0_0 + flow_8_13_0_0
   + flow_9_13_0_0 + flow_10_13_0_0 + flow_12_13_0_0 - flow_13_1_0_0
   - flow_13_2_0_0 - flow_13_4_0_0 - flow_13_5_0_0 - flow_13_6_0_0
   - flow_13_7_0_0 - flow_13_8_0_0 - flow_13_9_0_0 - flow_13_10_0_0
   - flow_13_12_0_0 - flow_13_15_0_0 - flow_13_16_0_0 - flow_13_17_0_0
   - flow_13_18_0_0 + flow_15_13_0_0 + flow_16_13_0_0 + flow_17_13_0_0 = 1
 one_parent_14: = 1
 consume_one_flow_unit_14: = 1
 one_parent_15: edge_0_15_0_0 + edge_1_15_0_0 + edge_5_15_0_0
   + edge_6_15_0_0 + edge_7_15_0_0 + edge_8_15_0_0 + edge_9_15_0_0
   + edge_10_15_0_0 + edge_12_15_0_0 + edge_13_15_0_0 + edge_16_15_0_0
   + edge_17_15_0_0 = 1
 consume_one_flow_unit_15: flow_0_15_0_0 + flow_1_15_0_0 + flow_5_15_0_0
   + flow_6_15_0_0 + flow_7_15_0_0 + flow_8_15_0_0 + flow_9_15_0_0
   + flow_10_15_0_0 + flow_12_15_0_0 + flow_13_15_0_0 - flow_15_2_0_0
   - flow_15_4_0_0 - flow_15_5_0_0 - flow_15_6_0_0 - flow_15_8_0_0
   - flow_15_9_0_0 - flow_15_10_0_0 - flow_15_12_0_0 - flow_15_13_0_0
   - flow_15_16_0_0 - flow_15_17_0_0 - flow_15_18_0_0 + flow_16_15_0_0
   + flow_17_15_0_0 = 1
 one_parent_16: edge_0_16_0_0 + edge_1_16_0_0 + edge_2_16_0_0
   + edge_5_16_0_0 + edge_6_16_0_0 + edge_7_16_0_0 + edge_8_16_0_0
   + edge_10_16_0_0 + edge_13_16_0_0 + edge_15_16_0_0 + edge_17_16_0_0
   + edge_18_16_0_0 = 1
 consume_one_flow_unit_16: flow_0_16_0_0 + flow_1_16_0_0 + flow_2_16_0_0
   + flow_5_16_0_0 + flow_6_16_0_0 + flow_7_16_0_0 + flow_8_16_0_0
   + flow_10_16_0_0 + flow_13_16_0_0 + flow_15_16_0_0 - flow_16_4_0_0
   - flow_16_5_0_0 - flow_16_6_0_0 - flow_16_8_0_0 - flow_16_10_0_0
   - flow_16_12_0_0 - flow_16_13_0_0 - flow_16_15_0_0 - flow_16_17_0_0
   - flow_16_18_0_0 + flow_17_16_0_0 + flow_18_16_0_0 = 1
 one_parent_17: edge_1_17_0_0 + edge_6_17_0_0 + edge_7_17_0_0
   + edge_8_17_0_0 + edge_10_17_0_0 + edge_13_17_0_0 + edge_15_17_0_0
   + edge_16_17_0_0 + edge_18_17_0_0 = 1
 consume_one_flow_unit_17: flow_1_17_0_0 + flow_6_17_0_0 + flow_7_17_0_0
   + flow_8_17_0_0 + flow_10_17_0_0 + flow_13_17_0_0 + flow_15_17_0_0
   + flow_16_17_0_0 - flow_17_9_0_0 - flow_17_13_0_0 - flow_17_15_0_0
   - flow_17_16_0_0 - flow_17_18_0_0 + flow_18_17_0_0 = 1
 one_parent_18: edge_0_18_0_0 + edge_1_18_0_0 + edge_4_18_0_0
   + edge_5_18_0_0 + edge_6_18_0_0 + edge_7_18_0_0 + edge_8_18_0_0
   + edge_10_18_0_0 + edge_12_18_0_0 + edge_13_18_0_0 + edge_15_18_0_0
   + edge_16_18_0_0 + edge_17_18_0_0 = 1
 consume_one_flow_unit_18: flow_0_18_0_0 + flow_1_18_0_0 + flow_4_18_0_0
   + flow_5_18_0_0 + flow_6_18_0_0 + flow_7_18_0_0 + flow_8_18_0_0
   + flow_10_18_0_0 + flow_12_18_0_0 + flow_13_18_0_0 + flow_15_18_0_0
   + flow_16_18_0_0 + flow_17_18_0_0 - flow_18_5_0_0 - flow_18_10_0_0
   - flow_18_12_0_0 - flow_18_16_0_0 - flow_18_17_0_0 = 1
 root_flow: flow_0_1_0_0 + flow_0_4_0_0 + flow_0_5_0_0 + flow_0_6_0_0
   + flow_0_7_0_0 + flow_0_8_0_0 + flow_0_10_0_0 + flow_0_12_0_0
   + flow_0_13_0_0 + flow_0_15_0_0 + flow_0_16_0_0 + flow_0_18_0_0 = 18
 inactive_no_flow_0_1_0_0: flow_0_1_0_0 - 1000 edge_0_1_0_0 <= 0
 inactive_no_flow_0_4_0_0: flow_0_4_0_0 - 1000 edge_0_4_0_0 <= 0
 inactive_no_flow_0_5_0_0: flow_0_5_0_0 - 1000 edge_0_5_0_0 <= 0
 inactive_no_flow_0_6_0_0: flow_0_6_0_0 - 1000 edge_0_6_0_0 <= 0
 inactive_no_flow_0_7_0_0: flow_0_7_0_0 - 1000 edge_0_7_0_0 <= 0
 inactive_no_flow_0_8_0_0: flow_0_8_0_0 - 1000 edge_0_8_0_0 <= 0
 inactive_no_flow_0_10_0_0: flow_0_10_0_0 - 1000 edge_0_10_0_0 <= 0
 inactive_no_flow_0_12_0_0: flow_0_12_0_0 - 1000 edge_0_12_0_0 <= 0
 inactive_no_flow_0_13_0_0: flow_0_13_0_0 - 1000 edge_0_13_0_0 <= 0
 inactive_no_flow_0_15_0_0: flow_0_15_0_0 - 1000 edge_0_15_0_0 <= 0
 inactive_no_flow_0_16_0_0: flow_0_16_0_0 - 1000 edge_0_16_0_0 <= 0
 inactive_no_flow_0_18_0_0: flow_0_18_0_0 - 1000 edge_0_18_0_0 <= 0
 inactive_no_flow_1_1_0_0: flow_1_1_0_0 - 1000 edge_1_1_0_0 <= 0
 inactive_no_flow_1_2_0_0: flow_1_2_0_0 - 1000 edge_1_2_0_0 <= 0
 inactive_no_flow_1_4_0_0: flow_1_4_0_0 - 1000 edge_1_4_0_0 <= 0
 inactive_no_flow_1_5_0_0: flow_1_5_0_0 - 1000 edge_1_5_0_0 <= 0
 inactive_no_flow_1_6_0_0: flow_1_6_0_0 - 1000 edge_1_6_0_0 <= 0
 inactive_no_flow_1_7_0_0: flow_1_7_0_0 - 1000 edge_1_7_0_0 <= 0
 inactive_no_flow_1_8_0_0: flow_1_8_0_0 - 1000 edge_1_8_0_0 <= 0
 inactive_no_flow_1_9_0_0: flow_1_9_0_0 - 1000 edge_1_9_0_0 <= 0
 inactive_no_flow_1_10_0_0: flow_1_10_0_0 - 1000 edge_1_10_0_0 <= 0
 inactive_no_flow_1_13_0_0: flow_1_13_0_0 - 1000 edge_1_13_0_0 <= 0
 inactive_no_flow_1_15_0_0: flow_1_15_0_0 - 1000 edge_1_15_0_0 <= 0
 inactive_no_flow_1_16_0_0: flow_1_16_0_0 - 1000 edge_1_16_0_0 <= 0
 inactive_no_flow_1_17_0_0: flow_1_17_0_0 - 1000 edge_1_17_0_0 <= 0
 inactive_no_flow_1_18_0_0: flow_1_18_0_0 - 1000 edge_1_18_0_0 <= 0
 inactive_no_flow_2_1_0_0: flow_2_1_0_0 - 1000 edge_2_1_0_0 <= 0
 inactive_no_flow_2_4_0_0: flow_2_4_0_0 - 1000 edge_2_4_0_0 <= 0
 inactive_no_flow_2_5_0_0: flow_2_5_0_0 - 1000 edge_2_5_0_0 <= 0
 inactive_no_flow_2_6_0_0: flow_2_6_0_0 - 1000 edge_2_6_0_0 <= 0
 inactive_no_flow_2_7_0_0: flow_2_7_0_0 - 1000 edge_2_7_0_0 <= 0
 inactive_no_flow_2_8_0_0: flow_2_8_0_0 - 1000 edge_2_8_0_0 <= 0
 inactive_no_flow_2_9_0_0: flow_2_9_0_0 - 1000 edge_2_9_0_0 <= 0
 inactive_no_flow_2_10_0_0: flow_2_10_0_0 - 1000 edge_2_10_0_0 <= 0
 inactive_no_flow_2_16_0_0: flow_2_16_0_0 - 1000 edge_2_16_0_0 <= 0
 inactive_no_flow_4_1_0_0: flow_4_1_0_0 - 1000 edge_4_1_0_0 <= 0
 inactive_no_flow_4_2_0_0: flow_4_2_0_0 - 1000 edge_4_2_0_0 <= 0
 inactive_no_flow_4_5_0_0: flow_4_5_0_0 - 1000 edge_4_5_0_0 <= 0
 inactive_no_flow_4_6_0_0: flow_4_6_0_0 - 1000 edge_4_6_0_0 <= 0
 inactive_no_flow_4_7_0_0: flow_4_7_0_0 - 1000 edge_4_7_0_0 <= 0
 inactive_no_flow_4_8_0_0: flow_4_8_0_0 - 1000 edge_4_8_0_0 <= 0
 inactive_no_flow_4_10_0_0: flow_4_10_0_0 - 1000 edge_4_10_0_0 <= 0
 inactive_no_flow_4_12_0_0: flow_4_12_0_0 - 1000 edge_4_12_0_0 <= 0
 inactive_no_flow_4_13_0_0: flow_4_13_0_0 - 1000 edge_4_13_0_0 <= 0
 inactive_no_flow_4_18_0_0: flow_4_18_0_0 - 1000 edge_4_18_0_0 <= 0
 inactive_no_flow_5_1_0_0: flow_5_1_0_0 - 1000 edge_5_1_0_0 <= 0
 inactive_no_flow_5_2_0_0: flow_5_2_0_0 - 1000 edge_5_2_0_0 <= 0
 inactive_no_flow_5_4_0_0: flow_5_4_0_0 - 1000 edge_5_4_0_0 <= 0
 inactive_no_flow_5_6_0_0: flow_5_6_0_0 - 1000 edge_5_6_0_0 <= 0
 inactive_no_flow_5_7_0_0: flow_5_7_0_0 - 1000 edge_5_7_0_0 <= 0
 inactive_no_flow_5_8_0_0: flow_5_8_0_0 - 1000 edge_5_8_0_0 <= 0
 inactive_no_flow_5_10_0_0: flow_5_10_0_0 - 1000 edge_5_10_0_0 <= 0
 inactive_no_flow_5_12_0_0: flow_5_12_0_0 - 1000 edge_5_12_0_0 <= 0
 inactive_no_flow_5_13_0_0: flow_5_13_0_0 - 1000 edge_5_13_0_0 <= 0
 inactive_no_flow_5_15_0_0: flow_5_15_0_0 - 1000 edge_5_15_0_0 <= 0
 inactive_no_flow_5_16_0_0: flow_5_16_0_0 - 1000 edge_5_16_0_0 <= 0
 inactive_no_flow_5_18_0_0: flow_5_18_0_0 - 1000 edge_5_18_0_0 <= 0
 inactive_no_flow_6_1_0_0: flow_6_1_0_0 - 1000 edge_6_1_0_0 <= 0
 inactive_no_flow_6_2_0_0: flow_6_2_0_0 - 1000 edge_6_2_0_0 <= 0
 inactive_no_flow_6_4_0_0: flow_6_4_0_0 - 1000 edge_6_4_0_0 <= 0
 inactive_no_flow_6_5_0_0: flow_6_5_0_0 - 1000 edge_6_5_0_0 <= 0
 inactive_no_flow_6_7_0_0: flow_6_7_0_0 - 1000 edge_6_7_0_0 <= 0
 inactive_no_flow_6_8_0_0: flow_6_8_0_0 - 1000 edge_6_8_0_0 <= 0
 inactive_no_flow_6_9_0_0: flow_6_9_0_0 - 1000 edge_6_9_0_0 <= 0
 inactive_no_flow_6_10_0_0: flow_6_10_0_0 - 1000 edge_6_10_0_0 <= 0
 inactive_no_flow_6_12_0_0: flow_6_12_0_0 - 1000 edge_6_12_0_0 <= 0
 inactive_no_flow_6_13_0_0: flow_6_13_0_0 - 1000 edge_6_13_0_0 <= 0
 inactive_no_flow_6_15_0_0: flow_6_15_0_0 - 1000 edge_6_15_0_0 <= 0
 inactive_no_flow_6_16_0_0: flow_6_16_0_0 - 1000 edge_6_16_0_0 <= 0
 inactive_no_flow_6_17_0_0: flow_6_17_0_0 - 1000 edge_6_17_0_0 <= 0
 inactive_no_flow_6_18_0_0: flow_6_18_0_0 - 1000 edge_6_18_0_0 <= 0
 inactive_no_flow_7_1_0_0: flow_7_1_0_0 - 1000 edge_7_1_0_0 <= 0
 inactive_no_flow_7_2_0_0: flow_7_2_0_0 - 1000 edge_7_2_0_0 <= 0
 inactive_no_flow_7_4_0_0: flow_7_4_0_0 - 1000 edge_7_4_0_0 <= 0
 inactive_no_flow_7_5_0_0: flow_7_5_0_0 - 1000 edge_7_5_0_0 <= 0
 inactive_no_flow_7_6_0_0: flow_7_6_0_0 - 1000 edge_7_6_0_0 <= 0
 inactive_no_flow_7_8_0_0: flow_7_8_0_0 - 1000 edge_7_8_0_0 <= 0
 inactive_no_flow_7_9_0_0: flow_7_9_0_0 - 1000 edge_7_9_0_0 <= 0
 inactive_no_flow_7_10_0_0: flow_7_10_0_0 - 1000 edge_7_10_0_0 <= 0
 inactive_no_flow_7_12_0_0: flow_7_12_0_0 - 1000 edge_7_12_0_0 <= 0
 inactive_no_flow_7_13_0_0: flow_7_13_0_0 - 1000 edge_7_13_0_0 <= 0
 inactive_no_flow_7_15_0_0: flow_7_15_0_0 - 1000 edge_7_15_0_0 <= 0
 inactive_no_flow_7_16_0_0: flow_7_16_0_0 - 1000 edge_7_16_0_0 <= 0
 inactive_no_flow_7_17_0_0: flow_7_17_0_0 - 1000 edge_7_17_0_0 <= 0
 inactive_no_flow_7_18_0_0: flow_7_18_0_0 - 1000 edge_7_18_0_0 <= 0
 inactive_no_flow_8_4_0_0: flow_8_4_0_0 - 1000 edge_8_4_0_0 <= 0
 inactive_no_flow_8_5_0_0: flow_8_5_0_0 - 1000 edge_8_5_0_0 <= 0
 inactive_no_flow_8_6_0_0: flow_8_6_0_0 - 1000 edge_8_6_0_0 <= 0
 inactive_no_flow_8_7_0_0: flow_8_7_0_0 - 1000 edge_8_7_0_0 <= 0
 inactive_no_flow_8_9_0_0: flow_8_9_0_0 - 1000 edge_8_9_0_0 <= 0
 inactive_no_flow_8_10_0_0: flow_8_10_0_0 - 1000 edge_8_10_0_0 <= 0
 inactive_no_flow_8_12_0_0: flow_8_12_0_0 - 1000 edge_8_12_0_0 <= 0
 inactive_no_flow_8_13_0_0: flow_8_13_0_0 - 1000 edge_8_13_0_0 <= 0
 inactive_no_flow_8_15_0_0: flow_8_15_0_0 - 1000 edge_8_15_0_0 <= 0
 inactive_no_flow_8_16_0_0: flow_8_16_0_0 - 1000 edge_8_16_0_0 <= 0
 inactive_no_flow_8_17_0_0: flow_8_17_0_0 - 1000 edge_8_17_0_0 <= 0
 inactive_no_flow_8_18_0_0: flow_8_18_0_0 - 1000 edge_8_18_0_0 <= 0
 inactive_no_flow_9_8_0_0: flow_9_8_0_0 - 1000 edge_9_8_0_0 <= 0
 inactive_no_flow_9_12_0_0: flow_9_12_0_0 - 1000 edge_9_12_0_0 <= 0
 inactive_no_flow_9_13_0_0: flow_9_13_0_0 - 1000 edge_9_13_0_0 <= 0
 inactive_no_flow_9_15_0_0: flow_9_15_0_0 - 1000 edge_9_15_0_0 <= 0
 inactive_no_flow_10_1_0_0: flow_10_1_0_0 - 1000 edge_10_1_0_0 <= 0
 inactive_no_flow_10_2_0_0: flow_10_2_0_0 - 1000 edge_10_2_0_0 <= 0
 inactive_no_flow_10_4_0_0: flow_10_4_0_0 - 1000 edge_10_4_0_0 <= 0
 inactive_no_flow_10_5_0_0: flow_10_5_0_0 - 1000 edge_10_5_0_0 <= 0
 inactive_no_flow_10_6_0_0: flow_10_6_0_0 - 1000 edge_10_6_0_0 <= 0
 inactive_no_flow_10_7_0_0: flow_10_7_0_0 - 1000 edge_10_7_0_0 <= 0
 inactive_no_flow_10_8_0_0: flow_10_8_0_0 - 1000 edge_10_8_0_0 <= 0
 inactive_no_flow_10_9_0_0: flow_10_9_0_0 - 1000 edge_10_9_0_0 <= 0
 inactive_no_flow_10_12_0_0: flow_10_12_0_0 - 1000 edge_10_12_0_0 <= 0
 inactive_no_flow_10_13_0_0: flow_10_13_0_0 - 1000 edge_10_13_0_0 <= 0
 inactive_no_flow_10_15_0_0: flow_10_15_0_0 - 1000 edge_10_15_0_0 <= 0
 inactive_no_flow_10_16_0_0: flow_10_16_0_0 - 1000 edge_10_16_0_0 <= 0
 inactive_no_flow_10_17_0_0: flow_10_17_0_0 - 1000 edge_10_17_0_0 <= 0
 inactive_no_flow_10_18_0_0: flow_10_18_0_0 - 1000 edge_10_18_0_0 <= 0
 inactive_no_flow_12_1_0_0: flow_12_1_0_0 - 1000 edge_12_1_0_0 <= 0
 inactive_no_flow_12_2_0_0: flow_12_2_0_0 - 1000 edge_12_2_0_0 <= 0
 inactive_no_flow_12_4_0_0: flow_12_4_0_0 - 1000 edge_12_4_0_0 <= 0
 inactive_no_flow_12_5_0_0: flow_12_5_0_0 - 1000 edge_12_5_0_0 <= 0
 inactive_no_flow_12_6_0_0: flow_12_6_0_0 - 1000 edge_12_6_0_0 <= 0
 inactive_no_flow_12_8_0_0: flow_12_8_0_0 - 1000 edge_12_8_0_0 <= 0
 inactive_no_flow_12_9_0_0: flow_12_9_0_0 - 1000 edge_12_9_0_0 <= 0
 inactive_no_flow_12_10_0_0: flow_12_10_0_0 - 1000 edge_12_10_0_0 <= 0
 inactive_no_flow_12_13_0_0: flow_12_13_0_0 - 1000 edge_12_13_0_0 <= 0
 inactive_no_flow_12_15_0_0: flow_12_15_0_0 - 1000 edge_12_15_0_0 <= 0
 inactive_no_flow_12_18_0_0: flow_12_18_0_0 - 1000 edge_12_18_0_0 <= 0
 inactive_no_flow_13_1_0_0: flow_13_1_0_0 - 1000 edge_13_1_0_0 <= 0
 inactive_no_flow_13_2_0_0: flow_13_2_0_0 - 1000 edge_13_2_0_0 <= 0
 inactive_no_flow_13_4_0_0: flow_13_4_0_0 - 1000 edge_13_4_0_0 <= 0
 inactive_no_flow_13_5_0_0: flow_13_5_0_0 - 1000 edge_13_5_0_0 <= 0
 inactive_no_flow_13_6_0_0: flow_13_6_0_0 - 1000 edge_13_6_0_0 <= 0
 inactive_no_flow_13_7_0_0: flow_13_7_0_0 - 1000 edge_13_7_0_0 <= 0
 inactive_no_flow_13_8_0_0: flow_13_8_0_0 - 1000 edge_13_8_0_0 <= 0
 inactive_no_flow_13_9_0_0: flow_13_9_0_0 - 1000 edge_13_9_0_0 <= 0
 inactive_no_flow_13_10_0_0: flow_13_10_0_0 - 1000 edge_13_10_0_0 <= 0
 inactive_no_flow_13_12_0_0: flow_13_12_0_0 - 1000 edge_13_12_0_0 <= 0
 inactive_no_flow_13_13_0_0: flow_13_13_0_0 - 1000 edge_13_13_0_0 <= 0
 inactive_no_flow_13_15_0_0: flow_13_15_0_0 - 1000 edge_13_15_0_0 <= 0
 inactive_no_flow_13_16_0_0: flow_13_16_0_0 - 1000 edge_13_16_0_0 <= 0
 inactive_no_flow_13_17_0_0: flow_13_17_0_0 - 1000 edge_13_17_0_0 <= 0
 inactive_no_flow_13_18_0_0: flow_13_18_0_0 - 1000 edge_13_18_0_0 <= 0
 inactive_no_flow_15_2_0_0: flow_15_2_0_0 - 1000 edge_15_2_0_0 <= 0
 inactive_no_flow_15_4_0_0: flow_15_4_0_0 - 1000 edge_15_4_0_0 <= 0
 inactive_no_flow_15_5_0_0: flow_15_5_0_0 - 1000 edge_15_5_0_0 <= 0
 inactive_no_flow_15_6_0_0: flow_15_6_0_0 - 1000 edge_15_6_0_0 <= 0
 inactive_no_flow_15_8_0_0: flow_15_8_0_0 - 1000 edge_15_8_0_0 <= 0
 inactive_no_flow_15_9_0_0: flow_15_9_0_0 - 1000 edge_15_9_0_0 <= 0
 inactive_no_flow_15_10_0_0: flow_15_10_0_0 - 1000 edge_15_10_0_0 <= 0
 inactive_no_flow_15_12_0_0: flow_15_12_0_0 - 1000 edge_15_12_0_0 <= 0
 inactive_no_flow_15_13_0_0: flow_15_13_0_0 - 1000 edge_15_13_0_0 <= 0
 inactive_no_flow_15_16_0_0: flow_15_16_0_0 - 1000 edge_15_16_0_0 <= 0
 inactive_no_flow_15_17_0_0: flow_15_17_0_0 - 1000 edge_15_17_0_0 <= 0
 inactive_no_flow_15_18_0_0: flow_15_18_0_0 - 1000 edge_15_18_0_0 <= 0
 inactive_no_flow_16_4_0_0: flow_16_4_0_0 - 1000 edge_16_4_0_0 <= 0
 inactive_no_flow_16_5_0_0: flow_16_5_0_0 - 1000 edge_16_5_0_0 <= 0
 inactive_no_flow_16_6_0_0: flow_16_6_0_0 - 1000 edge_16_6_0_0 <= 0
 inactive_no_flow_16_8_0_0: flow_16_8_0_0 - 1000 edge_16_8_0_0 <= 0
 inactive_no_flow_16_10_0_0: flow_16_10_0_0 - 1000 edge_16_10_0_0 <= 0
 inactive_no_flow_16_12_0_0: flow_16_12_0_0 - 1000 edge_16_12_0_0 <= 0
 inactive_no_flow_16_13_0_0: flow_16_13_0_0 - 1000 edge_16_13_0_0 <= 0
 inactive_no_flow_16_15_0_0: flow_16_15_0_0 - 1000 edge_16_15_0_0 <= 0
 inactive_no_flow_16_17_0_0: flow_16_17_0_0 - 1000 edge_16_17_0_0 <= 0
 inactive_no_flow_16_18_0_0: flow_16_18_0_0 - 1000 edge_16_18_0_0 <= 0
 inactive_no_flow_17_9_0_0: flow_17_9_0_0 - 1000 edge_17_9_0_0 <= 0
 inactive_no_flow_17_13_0_0: flow_17_13_0_0 - 1000 edge_17_13_0_0 <= 0
 inactive_no_flow_17_15_0_0: flow_17_15_0_0 - 1000 edge_17_15_0_0 <= 0
 inactive_no_flow_17_16_0_0: flow_17_16_0_0 - 1000 edge_17_16_0_0 <= 0
 inactive_no_flow_17_18_0_0: flow_17_18_0_0 - 1000 edge_17_18_0_0 <= 0
 inactive_no_flow_18_5_0_0: flow_18_5_0_0 - 1000 edge_18_5_0_0 <= 0
 inactive_no_flow_18_10_0_0: flow_18_10_0_0 - 1000 edge_18_10_0_0 <= 0
 inactive_no_flow_18_12_0_0: flow_18_12_0_0 - 1000 edge_18_12_0_0 <= 0
 inactive_no_flow_18_16_0_0: flow_18_16_0_0 - 1000 edge_18_16_0_0 <= 0
 inactive_no_flow_18_17_0_0: flow_18_17_0_0 - 1000 edge_18_17_0_0 <= 0
Bounds
Binaries
 edge_0_1_0_0 edge_0_4_0_0 edge_0_5_0_0 edge_0_6_0_0 edge_0_7_0_0
 edge_0_8_0_0 edge_0_10_0_0 edge_0_12_0_0 edge_0_13_0_0 edge_0_15_0_0
 edge_0_16_0_0 edge_0_18_0_0 edge_1_1_0_0 edge_1_2_0_0 edge_1_4_0_0
 edge_1_5_0_0 edge_1_6_0_0 edge_1_7_0_0 edge_1_8_0_0 edge_1_9_0_0
 edge_1_10_0_0 edge_1_13_0_0 edge_1_15_0_0 edge_1_16_0_0 edge_1_17_0_0
 edge_1_18_0_0 edge_2_1_0_0 edge_2_4_0_0 edge_2_5_0_0 edge_2_6_0_0
 edge_2_7_0_0 edge_2_8_0_0 edge_2_9_0_0 edge_2_10_0_0 edge_2_16_0_0
 edge_4_1_0_0 edge_4_2_0_0 edge_4_5_0_0 edge_4_6_0_0 edge_4_7_0_0
 edge_4_8_0_0 edge_4_10_0_0 edge_4_12_0_0 edge_4_13_0_0 edge_4_18_0_0
 edge_5_1_0_0 edge_5_2_0_0 edge_5_4_0_0 edge_5_6_0_0 edge_5_7_0_0
 edge_5_8_0_0 edge_5_10_0_0 edge_5_12_0_0 edge_5_13_0_0 edge_5_15_0_0
 edge_5_16_0_0 edge_5_18_0_0 edge_6_1_0_0 edge_6_2_0_0 edge_6_4_0_0
 edge_6_5_0_0 edge_6_7_0_0 edge_6_8_0_0 edge_6_9_0_0 edge_6_10_0_0
 edge_6_12_0_0 edge_6_13_0_0 edge_6_15_0_0 edge_6_16_0_0 edge_6_17_0_0
 edge_6_18_0_0 edge_7_1_0_0 edge_7_2_0_0 edge_7_4_0_0 edge_7_5_0_0
 edge_7_6_0_0 edge_7_8_0_0 edge_7_9_0_0 edge_7_10_0_0 edge_7_12_0_0
 edge_7_13_0_0 edge_7_15_0_0 edge_7_16_0_0 edge_7_17_0_0 edge_7_18_0_0
 edge_8_4_0_0 edge_8_5_0_0 edge_8_6_0_0 edge_8_7_0_0 edge_8_9_0_0
 edge_8_10_0_0 edge_8_12_0_0 edge_8_13_0_0 edge_8_15_0_0 edge_8_16_0_0
 edge_8_17_0_0 edge_8_18_0_0 edge_9_8_0_0 edge_9_12_0_0 edge_9_13_0_0
 edge_9_15_0_0 edge_10_1_0_0 edge_10_2_0_0 edge_10_4_0_0 edge_10_5_0_0
 edge_10_6_0_0 edge_10_7_0_0 edge_10_8_0_0 edge_10_9_0_0 edge_10_12_0_0
 edge_10_13_0_0 edge_10_15_0_0 edge_10_16_0_0 edge_10_17_0_0 edge_10_18_0_0
 edge_12_1_0_0 edge_12_2_0_0 edge_12_4_0_0 edge_12_5_0_0 edge_12_6_0_0
 edge_12_8_0_0 edge_12_9_0_0 edge_12_10_0_0 edge_12_13_0_0 edge_12_15_0_0
 edge_12_18_0_0 edge_13_1_0_0 edge_13_2_0_0 edge_13_4_0_0 edge_13_5_0_0
 edge_13_6_0_0 edge_13_7_0_0 edge_13_8_0_0 edge_13_9_0_0 edge_13_10_0_0
 edge_13_12_0_0 edge_13_13_0_0 edge_13_15_0_0 edge_13_16_0_0 edge_13_17_0_0
 edge_13_18_0_0 edge_15_2_0_0 edge_15_4_0_0 edge_15_5_0_0 edge_15_6_0_0
 edge_15_8_0_0 edge_15_9_0_0 edge_15_10_0_0 edge_15_12_0_0 edge_15_13_0_0
 edge_15_16_0_0 edge_15_17_0_0 edge_15_18_0_0 edge_16_4_0_0 edge_16_5_0_0
 edge_16_6_0_0 edge_16_8_0_0 edge_16_10_0_0 edge_16_12_0_0 edge_16_13_0_0
 edge_16_15_0_0 edge_16_17_0_0 edge_16_18_0_0 edge_17_9_0_0 edge_17_13_0_0
 edge_17_15_0_0 edge_17_16_0_0 edge_17_18_0_0 edge_18_5_0_0 edge_18_10_0_0
 edge_18_12_0_0 edge_18_16_0_0 edge_18_17_0_0
End
